SAT
4 -39 1 2 33 -3 60 50 -93 -87 28 38 -92 51 -68 94 -14 -37 11 -98 -48 76 62 -97 -91 -40 -29 36 23 19 96 -78 72 6 -15 -35 -22 65 66 -34 -25 86 81 70 74 -27 -69 20 -73 99 -55 8 -77 42 89 58 47 -7 30 -90 -5 59 44 67 82 79 12 -71 53 26 64 -85 84 9 80 -49 13 -57 -95 46 -41 24 18 100 21 56 63 52 -61 45 17 -16 43 75 -10 32 31 -83 -88 -54 0
